NAME : HealthcareRouting
TYPE : CVRP
DIMENSION : 31
EDGE_WEIGHT_TYPE : EUC_2D
CAPACITY : 10000
NODE_COORD_SECTION
1 409872 435604
2 409199 435982
3 409351 435734
4 409272 436188
5 409515 435614
6 409442 435913
7 408731 434657
8 408932 434976
9 409033 434769
10 409262 434873
11 409262 435017
12 409109 435153
13 409426 434622
14 409167 435416
15 409812 435857
16 409711 436281
17 410041 435866
18 409795 436554
19 410324 436701
20 409160 436346
21 409261 436338
22 409150 436607
23 409442 436668
24 408796 436835
25 408888 436863
26 409770 434593
27 409972 435164
28 410604 435208
29 410618 434776
30 411057 435110
31 410373 435785
DEMAND_SECTION
1 0
2 258
3 457
4 202
5 381
6 494
7 298
8 159
9 246
10 737
11 641
12 271
13 723
14 106
15 240
16 430
17 608
18 621
19 353
20 216
21 130
22 570
23 448
24 362
25 166
26 420
27 401
28 403
29 449
30 309
31 156
DEPOT_SECTION
1
-1
EOF